Maximize
 0
Subject To
 epc_0!1: -40.32186588183417 y_1!1_2!1 -63.31658754425153 y_1!2_2!1 +39.38350338847664 y_1!3_2!1 +51.57581447286779 y_1!1_2!2 -21.98296294554345 y_1!2_2!2 -81.11574523035983 y_1!3_2!2 -95.32449191897953 y_1!1_2!3 -72.21938628766536 y_1!2_2!3 +62.256164724438264 y_1!3_2!3 + lambda_0!1 - mu_0 = 0
 epc_0!2: +48.103451159627554 y_1!1_2!1 +16.476656006739205 y_1!2_2!1 -45.86376764578357 y_1!3_2!1 -93.77121577637439 y_1!1_2!2 -55.37548362776794 y_1!2_2!2 +73.42454442889539 y_1!3_2!2 -0.473657925593443 y_1!1_2!3 -5.2562095614051145 y_1!2_2!3 -65.1408532212829 y_1!3_2!3 + lambda_0!2 - mu_0 = 0
 epc_0!3: +38.80559885098489 y_1!1_2!1 -71.35079601891007 y_1!2_2!1 -24.14105492294891 y_1!3_2!1 +65.31992029305135 y_1!1_2!2 -73.15761777615108 y_1!2_2!2 -66.48784003090324 y_1!3_2!2 +5.234505922090094 y_1!1_2!3 -2.228504629606334 y_1!2_2!3 +85.89144768983442 y_1!3_2!3 + lambda_0!3 - mu_0 = 0
 dc_0: x_0!1 + x_0!2 + x_0!3 = 1
 bc_0!1: lambda_0!1 +286.21425387864076 x_0!1 <= 286.21425387864076
 bc_0!2: lambda_0!2 +286.21425387864076 x_0!2 <= 286.21425387864076
 bc_0!3: lambda_0!3 +286.21425387864076 x_0!3 <= 286.21425387864076
 sum_0!1: y_1!1_2!1 - x_1!1 - x_2!1 >= -1
 idk_0!1!1: y_1!1_2!1 - x_1!1 <= 0
 idk_0!1!2: y_1!1_2!1 - x_2!1 <= 0
 sum_0!2: y_1!2_2!1 - x_1!2 - x_2!1 >= -1
 idk_0!2!1: y_1!2_2!1 - x_1!2 <= 0
 idk_0!2!2: y_1!2_2!1 - x_2!1 <= 0
 sum_0!3: y_1!3_2!1 - x_1!3 - x_2!1 >= -1
 idk_0!3!1: y_1!3_2!1 - x_1!3 <= 0
 idk_0!3!2: y_1!3_2!1 - x_2!1 <= 0
 sum_0!4: y_1!1_2!2 - x_1!1 - x_2!2 >= -1
 idk_0!4!1: y_1!1_2!2 - x_1!1 <= 0
 idk_0!4!2: y_1!1_2!2 - x_2!2 <= 0
 sum_0!5: y_1!2_2!2 - x_1!2 - x_2!2 >= -1
 idk_0!5!1: y_1!2_2!2 - x_1!2 <= 0
 idk_0!5!2: y_1!2_2!2 - x_2!2 <= 0
 sum_0!6: y_1!3_2!2 - x_1!3 - x_2!2 >= -1
 idk_0!6!1: y_1!3_2!2 - x_1!3 <= 0
 idk_0!6!2: y_1!3_2!2 - x_2!2 <= 0
 sum_0!7: y_1!1_2!3 - x_1!1 - x_2!3 >= -1
 idk_0!7!1: y_1!1_2!3 - x_1!1 <= 0
 idk_0!7!2: y_1!1_2!3 - x_2!3 <= 0
 sum_0!8: y_1!2_2!3 - x_1!2 - x_2!3 >= -1
 idk_0!8!1: y_1!2_2!3 - x_1!2 <= 0
 idk_0!8!2: y_1!2_2!3 - x_2!3 <= 0
 sum_0!9: y_1!3_2!3 - x_1!3 - x_2!3 >= -1
 idk_0!9!1: y_1!3_2!3 - x_1!3 <= 0
 idk_0!9!2: y_1!3_2!3 - x_2!3 <= 0
 epc_1!1: -36.867825238302146 y_0!1_2!1 +16.458123072200053 y_0!2_2!1 +82.74887426497753 y_0!3_2!1 -11.910310270485411 y_0!1_2!2 -27.99753845596426 y_0!2_2!2 -29.282043621547956 y_0!3_2!2 +42.15907650160139 y_0!1_2!3 -18.61249801538061 y_0!2_2!3 +30.222310590253244 y_0!3_2!3 + lambda_1!1 - mu_1 = 0
 epc_1!2: -83.97749163306203 y_0!1_2!1 +24.887829954790774 y_0!2_2!1 +82.7019937809873 y_0!3_2!1 -24.266542267843533 y_0!1_2!2 +35.24378585127084 y_0!2_2!2 -42.81939172963214 y_0!3_2!2 -10.403027193240447 y_0!1_2!3 -69.08530931905511 y_0!2_2!3 -95.9449645350289 y_0!3_2!3 + lambda_1!2 - mu_1 = 0
 epc_1!3: -83.01344344932585 y_0!1_2!1 -18.563625257655602 y_0!2_2!1 +65.50561156848579 y_0!3_2!1 -75.2583303305992 y_0!1_2!2 -31.78527415490386 y_0!2_2!2 -18.604087752345293 y_0!3_2!2 +69.31214394670954 y_0!1_2!3 +67.38251495471468 y_0!2_2!3 -41.572869308433205 y_0!3_2!3 + lambda_1!3 - mu_1 = 0
 dc_1: x_1!1 + x_1!2 + x_1!3 = 1
 bc_1!1: lambda_1!1 +286.21425387864076 x_1!1 <= 286.21425387864076
 bc_1!2: lambda_1!2 +286.21425387864076 x_1!2 <= 286.21425387864076
 bc_1!3: lambda_1!3 +286.21425387864076 x_1!3 <= 286.21425387864076
 sum_1!1: y_0!1_2!1 - x_0!1 - x_2!1 >= -1
 idk_1!1!0: y_0!1_2!1 - x_0!1 <= 0
 idk_1!1!2: y_0!1_2!1 - x_2!1 <= 0
 sum_1!2: y_0!2_2!1 - x_0!2 - x_2!1 >= -1
 idk_1!2!0: y_0!2_2!1 - x_0!2 <= 0
 idk_1!2!2: y_0!2_2!1 - x_2!1 <= 0
 sum_1!3: y_0!3_2!1 - x_0!3 - x_2!1 >= -1
 idk_1!3!0: y_0!3_2!1 - x_0!3 <= 0
 idk_1!3!2: y_0!3_2!1 - x_2!1 <= 0
 sum_1!4: y_0!1_2!2 - x_0!1 - x_2!2 >= -1
 idk_1!4!0: y_0!1_2!2 - x_0!1 <= 0
 idk_1!4!2: y_0!1_2!2 - x_2!2 <= 0
 sum_1!5: y_0!2_2!2 - x_0!2 - x_2!2 >= -1
 idk_1!5!0: y_0!2_2!2 - x_0!2 <= 0
 idk_1!5!2: y_0!2_2!2 - x_2!2 <= 0
 sum_1!6: y_0!3_2!2 - x_0!3 - x_2!2 >= -1
 idk_1!6!0: y_0!3_2!2 - x_0!3 <= 0
 idk_1!6!2: y_0!3_2!2 - x_2!2 <= 0
 sum_1!7: y_0!1_2!3 - x_0!1 - x_2!3 >= -1
 idk_1!7!0: y_0!1_2!3 - x_0!1 <= 0
 idk_1!7!2: y_0!1_2!3 - x_2!3 <= 0
 sum_1!8: y_0!2_2!3 - x_0!2 - x_2!3 >= -1
 idk_1!8!0: y_0!2_2!3 - x_0!2 <= 0
 idk_1!8!2: y_0!2_2!3 - x_2!3 <= 0
 sum_1!9: y_0!3_2!3 - x_0!3 - x_2!3 >= -1
 idk_1!9!0: y_0!3_2!3 - x_0!3 <= 0
 idk_1!9!2: y_0!3_2!3 - x_2!3 <= 0
 epc_2!1: -41.86170764527473 y_0!1_1!1 -53.709300994266805 y_0!2_1!1 +15.341915129345665 y_0!3_1!1 +92.63975704163383 y_0!1_1!2 -17.725241483869453 y_0!2_1!2 -70.27379655674713 y_0!3_1!2 +78.78774354918511 y_0!1_1!3 +58.00298416585085 y_0!2_1!3 -26.13639836804606 y_0!3_1!3 + lambda_2!1 - mu_2 = 0
 epc_2!2: -27.86821158680877 y_0!1_1!1 +52.53596672620094 y_0!2_1!1 -71.18856329983274 y_0!3_1!1 +23.974585164158896 y_0!1_1!2 +52.963453029906105 y_0!2_1!2 +37.931631411695435 y_0!3_1!2 -90.14150977445254 y_0!1_1!3 -69.18078948615613 y_0!2_1!3 +93.80574398575547 y_0!3_1!3 + lambda_2!2 - mu_2 = 0
 epc_2!3: +50.480958546957424 y_0!1_1!1 -33.961896483772435 y_0!2_1!1 -1.2911561885407252 y_0!3_1!1 +96.07274410418819 y_0!1_1!2 -81.90951300992427 y_0!2_1!2 +74.6489465455274 y_0!3_1!2 +67.07964527860966 y_0!1_1!3 -53.24342744963466 y_0!2_1!3 -46.635830367640985 y_0!3_1!3 + lambda_2!3 - mu_2 = 0
 dc_2: x_2!1 + x_2!2 + x_2!3 = 1
 bc_2!1: lambda_2!1 +286.21425387864076 x_2!1 <= 286.21425387864076
 bc_2!2: lambda_2!2 +286.21425387864076 x_2!2 <= 286.21425387864076
 bc_2!3: lambda_2!3 +286.21425387864076 x_2!3 <= 286.21425387864076
 sum_2!1: y_0!1_1!1 - x_0!1 - x_1!1 >= -1
 idk_2!1!0: y_0!1_1!1 - x_0!1 <= 0
 idk_2!1!1: y_0!1_1!1 - x_1!1 <= 0
 sum_2!2: y_0!2_1!1 - x_0!2 - x_1!1 >= -1
 idk_2!2!0: y_0!2_1!1 - x_0!2 <= 0
 idk_2!2!1: y_0!2_1!1 - x_1!1 <= 0
 sum_2!3: y_0!3_1!1 - x_0!3 - x_1!1 >= -1
 idk_2!3!0: y_0!3_1!1 - x_0!3 <= 0
 idk_2!3!1: y_0!3_1!1 - x_1!1 <= 0
 sum_2!4: y_0!1_1!2 - x_0!1 - x_1!2 >= -1
 idk_2!4!0: y_0!1_1!2 - x_0!1 <= 0
 idk_2!4!1: y_0!1_1!2 - x_1!2 <= 0
 sum_2!5: y_0!2_1!2 - x_0!2 - x_1!2 >= -1
 idk_2!5!0: y_0!2_1!2 - x_0!2 <= 0
 idk_2!5!1: y_0!2_1!2 - x_1!2 <= 0
 sum_2!6: y_0!3_1!2 - x_0!3 - x_1!2 >= -1
 idk_2!6!0: y_0!3_1!2 - x_0!3 <= 0
 idk_2!6!1: y_0!3_1!2 - x_1!2 <= 0
 sum_2!7: y_0!1_1!3 - x_0!1 - x_1!3 >= -1
 idk_2!7!0: y_0!1_1!3 - x_0!1 <= 0
 idk_2!7!1: y_0!1_1!3 - x_1!3 <= 0
 sum_2!8: y_0!2_1!3 - x_0!2 - x_1!3 >= -1
 idk_2!8!0: y_0!2_1!3 - x_0!2 <= 0
 idk_2!8!1: y_0!2_1!3 - x_1!3 <= 0
 sum_2!9: y_0!3_1!3 - x_0!3 - x_1!3 >= -1
 idk_2!9!0: y_0!3_1!3 - x_0!3 <= 0
 idk_2!9!1: y_0!3_1!3 - x_1!3 <= 0
Bounds
 mu_0 free
 mu_1 free
 mu_2 free
Binary
 x_0!1 x_0!2 x_0!3 x_1!1 x_1!2 x_1!3 x_2!1 x_2!2 x_2!3
End
